(set-logic QF_S)
(set-option :strings-exp true)
(set-option :produce-models true)
(declare-fun sigmaStar_0 () String)
(declare-fun sigmaStar_2 () String)
(declare-fun literal_13 () String)
(assert (= literal_13 "\x3c\x74\x64\x20\x73\x74\x79\x6c\x65\x3d\x22\x77\x69\x64\x74\x68\x3a\x20\x31\x36\x30\x70\x78\x3b\x22\x20\x69\x64\x3d\x22\x6c\x65\x66\x74\x2d\x63\x6f\x6c\x75\x6d\x6e\x22\x3e"))
(assert (str.in.re literal_13 (re.++ (re.* re.allchar) (re.++ (str.to.re "\x5c\x3c\x53\x43\x52\x49\x50\x54") (re.* re.allchar)))))
(check-sat)
(get-model)
